(declare-datatype list ((nil) (cons (head Int) (tail list))))
(declare-datatype
  Heap
  ((Node (proj1-Node Heap) (proj2-Node Int) (proj3-Node Heap))
   (Nil)))
(define-fun-rec
  hmerge
  ((x Heap) (y Heap)) Heap
  (match x
    (((Node z x2 x3)
      (match y
        (((Node x4 x5 x6)
          (ite
            (<= x2 x5) (Node (hmerge x3 (Node x4 x5 x6)) x2 z)
            (Node (hmerge (Node z x2 x3) x6) x5 x4)))
         (Nil (Node z x2 x3)))))
     (Nil y))))
(define-fun-rec
  toList
  ((x Heap)) list
  (match x
    (((Node p y q) (cons y (toList (hmerge p q))))
     (Nil nil))))
(define-fun
  hinsert
  ((x Int) (y Heap)) Heap (hmerge (Node Nil x Nil) y))
(define-fun-rec
  toHeap2
  ((x list)) Heap
  (match x
    ((nil Nil)
     ((cons y xs) (hinsert y (toHeap2 xs))))))
(define-fun
  hsort2
  ((x list)) list (toList (toHeap2 x)))
(define-fun-rec
  count
  ((x Int) (y list)) Int
  (match y
    ((nil 0)
     ((cons z ys) (ite (= x z) (+ 1 (count x ys)) (count x ys))))))
(assert
  (not
    (forall ((x Int) (xs list))
      (= (count x (hsort2 xs)) (count x xs)))))
(check-sat)
